\* Fantasy_Cricket *\
Maximize
MaximizeROI: 2.11764705882 playerChosen_Bhuvneshwar_Kumar
 + 8.75 playerChosen_Brandon_King + 11.2941176471 playerChosen_Deepak_Chahar
 + 5 playerChosen_Denesh_Ramdin + 6 playerChosen_Evin_Lewis
 + 10.75 playerChosen_Fabian_Allen + 1.76470588235 playerChosen_Hayden_Walsh
 + 11.1764705882 playerChosen_Jason_Holder
 + 2.33333333333 playerChosen_KL_Rahul + 6.625 playerChosen_Keemo_Paul
 + 4.22222222222 playerChosen_Kesrick_Williams
 + 10.125 playerChosen_Khary_Pierre + 7 playerChosen_Kieron_Pollard
 + 8.94117647059 playerChosen_Kuldeep_Yadav
 + 11.6470588235 playerChosen_Lendl_Simmons
 + 5.88235294118 playerChosen_M_Shami
 + 9.64705882353 playerChosen_Manish_Pandey
 + 10.6666666667 playerChosen_Nicholas_Pooran
 + 3.29411764706 playerChosen_Ravindra_Jadeja
 + 8.70588235294 playerChosen_Rishabh_Pant
 + 5.71428571429 playerChosen_Rohit_Sharma
 + 9.88235294118 playerChosen_Sanju_Samson
 + 4.55555555556 playerChosen_Sheldon_Cottrell
 + 7.875 playerChosen_Sherfane_Rutherford
 + 0.444444444444 playerChosen_Shimron_Hetmyer
 + 0.875 playerChosen_Shivam_Dubey + 4 playerChosen_Shreyas_Iyer
 + 7.80952380952 playerChosen_Virat_Kohli
 + 0.375 playerChosen_Washington_Sundar
 + 3.55555555556 playerChosen_Yuzvendra_Chahal
Subject To
ArMaximum: playerChosen_Fabian_Allen + playerChosen_Jason_Holder
 + playerChosen_Keemo_Paul + playerChosen_Kieron_Pollard
 + playerChosen_Ravindra_Jadeja + playerChosen_Sherfane_Rutherford
 + playerChosen_Shivam_Dubey + playerChosen_Washington_Sundar <= 3
ArMinimum: playerChosen_Fabian_Allen + playerChosen_Jason_Holder
 + playerChosen_Keemo_Paul + playerChosen_Kieron_Pollard
 + playerChosen_Ravindra_Jadeja + playerChosen_Sherfane_Rutherford
 + playerChosen_Shivam_Dubey + playerChosen_Washington_Sundar >= 1
BatsmenMaximum: playerChosen_Brandon_King + playerChosen_Evin_Lewis
 + playerChosen_KL_Rahul + playerChosen_Lendl_Simmons
 + playerChosen_Manish_Pandey + playerChosen_Rohit_Sharma
 + playerChosen_Shimron_Hetmyer + playerChosen_Shreyas_Iyer
 + playerChosen_Virat_Kohli <= 5
BatsmenMinimum: playerChosen_Brandon_King + playerChosen_Evin_Lewis
 + playerChosen_KL_Rahul + playerChosen_Lendl_Simmons
 + playerChosen_Manish_Pandey + playerChosen_Rohit_Sharma
 + playerChosen_Shimron_Hetmyer + playerChosen_Shreyas_Iyer
 + playerChosen_Virat_Kohli >= 3
BowlerMaximum: playerChosen_Bhuvneshwar_Kumar + playerChosen_Deepak_Chahar
 + playerChosen_Hayden_Walsh + playerChosen_Kesrick_Williams
 + playerChosen_Khary_Pierre + playerChosen_Kuldeep_Yadav
 + playerChosen_M_Shami + playerChosen_Sheldon_Cottrell
 + playerChosen_Yuzvendra_Chahal <= 5
BowlerMinimum: playerChosen_Bhuvneshwar_Kumar + playerChosen_Deepak_Chahar
 + playerChosen_Hayden_Walsh + playerChosen_Kesrick_Williams
 + playerChosen_Khary_Pierre + playerChosen_Kuldeep_Yadav
 + playerChosen_M_Shami + playerChosen_Sheldon_Cottrell
 + playerChosen_Yuzvendra_Chahal >= 3
MaxCredits: 8.5 playerChosen_Bhuvneshwar_Kumar + 8 playerChosen_Brandon_King
 + 8.5 playerChosen_Deepak_Chahar + 8 playerChosen_Denesh_Ramdin
 + 9.5 playerChosen_Evin_Lewis + 8 playerChosen_Fabian_Allen
 + 8.5 playerChosen_Hayden_Walsh + 8.5 playerChosen_Jason_Holder
 + 9 playerChosen_KL_Rahul + 8 playerChosen_Keemo_Paul
 + 9 playerChosen_Kesrick_Williams + 8 playerChosen_Khary_Pierre
 + 9 playerChosen_Kieron_Pollard + 8.5 playerChosen_Kuldeep_Yadav
 + 8.5 playerChosen_Lendl_Simmons + 8.5 playerChosen_M_Shami
 + 8.5 playerChosen_Manish_Pandey + 9 playerChosen_Nicholas_Pooran
 + 8.5 playerChosen_Ravindra_Jadeja + 8.5 playerChosen_Rishabh_Pant
 + 10.5 playerChosen_Rohit_Sharma + 8.5 playerChosen_Sanju_Samson
 + 9 playerChosen_Sheldon_Cottrell + 8 playerChosen_Sherfane_Rutherford
 + 9 playerChosen_Shimron_Hetmyer + 8 playerChosen_Shivam_Dubey
 + 9 playerChosen_Shreyas_Iyer + 10.5 playerChosen_Virat_Kohli
 + 8 playerChosen_Washington_Sundar + 9 playerChosen_Yuzvendra_Chahal <= 100
Team1Maximum: playerChosen_Bhuvneshwar_Kumar + playerChosen_Deepak_Chahar
 + playerChosen_KL_Rahul + playerChosen_Kuldeep_Yadav + playerChosen_M_Shami
 + playerChosen_Manish_Pandey + playerChosen_Ravindra_Jadeja
 + playerChosen_Rishabh_Pant + playerChosen_Rohit_Sharma
 + playerChosen_Sanju_Samson + playerChosen_Shivam_Dubey
 + playerChosen_Shreyas_Iyer + playerChosen_Virat_Kohli
 + playerChosen_Washington_Sundar + playerChosen_Yuzvendra_Chahal <= 7
Team1Minimum: playerChosen_Bhuvneshwar_Kumar + playerChosen_Deepak_Chahar
 + playerChosen_KL_Rahul + playerChosen_Kuldeep_Yadav + playerChosen_M_Shami
 + playerChosen_Manish_Pandey + playerChosen_Ravindra_Jadeja
 + playerChosen_Rishabh_Pant + playerChosen_Rohit_Sharma
 + playerChosen_Sanju_Samson + playerChosen_Shivam_Dubey
 + playerChosen_Shreyas_Iyer + playerChosen_Virat_Kohli
 + playerChosen_Washington_Sundar + playerChosen_Yuzvendra_Chahal >= 4
Team2Maximum: playerChosen_Brandon_King + playerChosen_Denesh_Ramdin
 + playerChosen_Evin_Lewis + playerChosen_Fabian_Allen
 + playerChosen_Hayden_Walsh + playerChosen_Jason_Holder
 + playerChosen_Keemo_Paul + playerChosen_Kesrick_Williams
 + playerChosen_Khary_Pierre + playerChosen_Kieron_Pollard
 + playerChosen_Lendl_Simmons + playerChosen_Nicholas_Pooran
 + playerChosen_Sheldon_Cottrell + playerChosen_Sherfane_Rutherford
 + playerChosen_Shimron_Hetmyer <= 7
Team2Minimum: playerChosen_Brandon_King + playerChosen_Denesh_Ramdin
 + playerChosen_Evin_Lewis + playerChosen_Fabian_Allen
 + playerChosen_Hayden_Walsh + playerChosen_Jason_Holder
 + playerChosen_Keemo_Paul + playerChosen_Kesrick_Williams
 + playerChosen_Khary_Pierre + playerChosen_Kieron_Pollard
 + playerChosen_Lendl_Simmons + playerChosen_Nicholas_Pooran
 + playerChosen_Sheldon_Cottrell + playerChosen_Sherfane_Rutherford
 + playerChosen_Shimron_Hetmyer >= 4
Totalselection: playerChosen_Bhuvneshwar_Kumar + playerChosen_Brandon_King
 + playerChosen_Deepak_Chahar + playerChosen_Denesh_Ramdin
 + playerChosen_Evin_Lewis + playerChosen_Fabian_Allen
 + playerChosen_Hayden_Walsh + playerChosen_Jason_Holder
 + playerChosen_KL_Rahul + playerChosen_Keemo_Paul
 + playerChosen_Kesrick_Williams + playerChosen_Khary_Pierre
 + playerChosen_Kieron_Pollard + playerChosen_Kuldeep_Yadav
 + playerChosen_Lendl_Simmons + playerChosen_M_Shami
 + playerChosen_Manish_Pandey + playerChosen_Nicholas_Pooran
 + playerChosen_Ravindra_Jadeja + playerChosen_Rishabh_Pant
 + playerChosen_Rohit_Sharma + playerChosen_Sanju_Samson
 + playerChosen_Sheldon_Cottrell + playerChosen_Sherfane_Rutherford
 + playerChosen_Shimron_Hetmyer + playerChosen_Shivam_Dubey
 + playerChosen_Shreyas_Iyer + playerChosen_Virat_Kohli
 + playerChosen_Washington_Sundar + playerChosen_Yuzvendra_Chahal = 11
Wkequal: playerChosen_Denesh_Ramdin + playerChosen_Nicholas_Pooran
 + playerChosen_Rishabh_Pant + playerChosen_Sanju_Samson = 1
Binaries
playerChosen_Bhuvneshwar_Kumar
playerChosen_Brandon_King
playerChosen_Deepak_Chahar
playerChosen_Denesh_Ramdin
playerChosen_Evin_Lewis
playerChosen_Fabian_Allen
playerChosen_Hayden_Walsh
playerChosen_Jason_Holder
playerChosen_KL_Rahul
playerChosen_Keemo_Paul
playerChosen_Kesrick_Williams
playerChosen_Khary_Pierre
playerChosen_Kieron_Pollard
playerChosen_Kuldeep_Yadav
playerChosen_Lendl_Simmons
playerChosen_M_Shami
playerChosen_Manish_Pandey
playerChosen_Nicholas_Pooran
playerChosen_Ravindra_Jadeja
playerChosen_Rishabh_Pant
playerChosen_Rohit_Sharma
playerChosen_Sanju_Samson
playerChosen_Sheldon_Cottrell
playerChosen_Sherfane_Rutherford
playerChosen_Shimron_Hetmyer
playerChosen_Shivam_Dubey
playerChosen_Shreyas_Iyer
playerChosen_Virat_Kohli
playerChosen_Washington_Sundar
playerChosen_Yuzvendra_Chahal
End
